p tw 78 85
1 2
2 13
3 4
4 5
5 6
6 7
7 8
8 9
9 10
10 11
10 14
11 12
12 18
13 24
14 15
15 16
16 17
16 28
17 18
18 19
19 20
20 21
21 22
22 23
23 25
24 35
25 26
26 27
27 53
28 29
29 30
30 31
30 49
31 32
32 33
32 49
33 34
34 36
35 46
36 37
37 38
38 39
39 40
40 41
41 42
42 43
43 44
44 45
45 47
46 57
46 49
47 48
48 53
49 50
50 51
51 52
52 53
53 54
54 55
55 56
55 61
56 58
57 68
58 59
59 60
60 61
60 73
61 62
62 63
63 64
64 65
65 66
66 67
67 69
68 77
69 70
70 71
71 72
72 75
73 74
74 75
75 76
77 78
77 7
78 3
